p cnf 850 1879
-1 2 0
3 2 0
1 -3 -2 0
4 -2 0
-4 2 0
-5 6 0
7 6 0
5 -7 -6 0
8 -6 0
-8 6 0
-9 10 0
11 10 0
9 -11 -10 0
12 -10 0
-12 10 0
-13 14 0
15 14 0
13 -15 -14 0
16 -14 0
-16 14 0
-17 18 0
19 18 0
17 -19 -18 0
20 -18 0
-20 18 0
-21 22 0
23 22 0
21 -23 -22 0
24 -22 0
-24 22 0
-25 26 0
27 26 0
25 -27 -26 0
28 -26 0
-28 26 0
-29 30 0
31 30 0
29 -31 -30 0
32 -30 0
-32 30 0
-33 34 0
35 34 0
33 -35 -34 0
36 -34 0
-36 34 0
-37 38 0
39 38 0
37 -39 -38 0
40 -38 0
-40 38 0
-41 42 0
43 42 0
41 -43 -42 0
44 -42 0
-44 42 0
-45 46 0
47 46 0
45 -47 -46 0
48 -46 0
-48 46 0
-49 50 0
51 50 0
49 -51 -50 0
52 -50 0
-52 50 0
-53 54 0
55 54 0
53 -55 -54 0
56 -54 0
-56 54 0
-57 58 0
59 58 0
57 -59 -58 0
60 -58 0
-60 58 0
-61 62 0
63 62 0
61 -63 -62 0
64 -62 0
-64 62 0
-65 66 0
67 66 0
65 -67 -66 0
68 -66 0
-68 66 0
-69 70 0
71 70 0
69 -71 -70 0
72 -70 0
-72 70 0
-73 74 0
75 74 0
73 -75 -74 0
76 -74 0
-76 74 0
-77 78 0
79 78 0
77 -79 -78 0
80 -78 0
-80 78 0
-81 82 0
83 82 0
81 -83 -82 0
84 -82 0
-84 82 0
-85 86 0
87 86 0
85 -87 -86 0
88 -86 0
-88 86 0
-89 90 0
91 90 0
89 -91 -90 0
92 -90 0
-92 90 0
-93 94 0
95 94 0
93 -95 -94 0
96 -94 0
-96 94 0
-97 98 0
99 98 0
97 -99 -98 0
100 -98 0
-100 98 0
-101 102 0
103 102 0
101 -103 -102 0
104 -102 0
-104 102 0
-105 106 0
107 106 0
105 -107 -106 0
108 -106 0
-108 106 0
-109 110 0
111 110 0
109 -111 -110 0
112 -110 0
-112 110 0
-113 114 0
115 114 0
113 -115 -114 0
116 -114 0
-116 114 0
-117 118 0
119 118 0
117 -119 -118 0
120 -118 0
-120 118 0
-121 122 0
123 122 0
121 -123 -122 0
124 -122 0
-124 122 0
-125 126 0
127 126 0
125 -127 -126 0
128 -126 0
-128 126 0
-129 130 0
131 130 0
129 -131 -130 0
132 -130 0
-132 130 0
-133 134 0
135 134 0
133 -135 -134 0
136 -134 0
-136 134 0
-137 138 0
139 138 0
137 -139 -138 0
140 -138 0
-140 138 0
-141 142 0
143 142 0
141 -143 -142 0
144 -142 0
-144 142 0
-145 146 0
147 146 0
145 -147 -146 0
148 -146 0
-148 146 0
-149 150 0
151 150 0
149 -151 -150 0
152 -150 0
-152 150 0
-153 154 0
155 154 0
153 -155 -154 0
156 -154 0
-156 154 0
-157 158 0
159 158 0
157 -159 -158 0
160 -158 0
-160 158 0
-161 162 0
163 162 0
161 -163 -162 0
164 -162 0
-164 162 0
-165 166 0
167 166 0
165 -167 -166 0
168 -166 0
-168 166 0
-169 170 0
171 170 0
169 -171 -170 0
172 -170 0
-172 170 0
-173 174 0
175 174 0
173 -175 -174 0
176 -174 0
-176 174 0
-177 178 0
179 178 0
177 -179 -178 0
180 -178 0
-180 178 0
-181 182 0
183 182 0
181 -183 -182 0
184 -182 0
-184 182 0
-185 186 0
187 186 0
185 -187 -186 0
188 -186 0
-188 186 0
-189 190 0
191 190 0
189 -191 -190 0
192 -190 0
-192 190 0
-193 194 0
195 194 0
193 -195 -194 0
196 -194 0
-196 194 0
-197 198 0
199 198 0
197 -199 -198 0
200 -198 0
-200 198 0
-201 202 0
203 202 0
201 -203 -202 0
204 -202 0
-204 202 0
-205 206 0
207 206 0
205 -207 -206 0
208 -206 0
-208 206 0
-209 210 0
211 210 0
209 -211 -210 0
212 -210 0
-212 210 0
-213 214 0
215 214 0
213 -215 -214 0
216 -214 0
-216 214 0
-217 218 0
219 218 0
217 -219 -218 0
220 -218 0
-220 218 0
-221 222 0
223 222 0
221 -223 -222 0
224 -222 0
-224 222 0
-225 226 0
227 226 0
225 -227 -226 0
228 -226 0
-228 226 0
-229 230 0
231 230 0
229 -231 -230 0
232 -230 0
-232 230 0
-233 234 0
235 234 0
233 -235 -234 0
236 -234 0
-236 234 0
-237 238 0
239 238 0
237 -239 -238 0
240 -238 0
-240 238 0
-241 242 0
243 242 0
241 -243 -242 0
244 -242 0
-244 242 0
-245 246 0
247 246 0
245 -247 -246 0
248 -246 0
-248 246 0
-249 250 0
251 250 0
249 -251 -250 0
252 -250 0
-252 250 0
-253 254 0
255 254 0
253 -255 -254 0
256 -254 0
-256 254 0
-257 258 0
259 258 0
257 -259 -258 0
260 -258 0
-260 258 0
-261 262 0
263 262 0
261 -263 -262 0
264 -262 0
-264 262 0
-265 266 0
267 266 0
265 -267 -266 0
268 -266 0
-268 266 0
-269 270 0
271 270 0
269 -271 -270 0
272 -270 0
-272 270 0
-273 274 0
275 274 0
273 -275 -274 0
276 -274 0
-276 274 0
-277 278 0
279 278 0
277 -279 -278 0
280 -278 0
-280 278 0
-281 282 0
283 282 0
281 -283 -282 0
284 -282 0
-284 282 0
-285 286 0
287 286 0
285 -287 -286 0
288 -286 0
-288 286 0
-289 290 0
291 290 0
289 -291 -290 0
292 -290 0
-292 290 0
-293 294 0
295 294 0
293 -295 -294 0
296 -294 0
-296 294 0
-297 298 0
299 298 0
297 -299 -298 0
300 -298 0
-300 298 0
-301 302 0
303 302 0
301 -303 -302 0
304 -302 0
-304 302 0
-305 306 0
307 306 0
305 -307 -306 0
308 -306 0
-308 306 0
-309 310 0
311 310 0
309 -311 -310 0
312 -310 0
-312 310 0
-313 314 0
315 314 0
313 -315 -314 0
316 -314 0
-316 314 0
-317 318 0
319 318 0
317 -319 -318 0
320 -318 0
-320 318 0
-321 322 0
323 322 0
321 -323 -322 0
324 -322 0
-324 322 0
-325 326 0
327 326 0
325 -327 -326 0
328 -326 0
-328 326 0
-329 330 0
331 330 0
329 -331 -330 0
332 -330 0
-332 330 0
-333 334 0
335 334 0
333 -335 -334 0
336 -334 0
-336 334 0
-337 338 0
339 338 0
337 -339 -338 0
340 -338 0
-340 338 0
-341 342 0
343 342 0
341 -343 -342 0
344 -342 0
-344 342 0
-345 346 0
347 346 0
345 -347 -346 0
348 -346 0
-348 346 0
-349 350 0
351 350 0
349 -351 -350 0
352 -350 0
-352 350 0
-353 354 0
355 354 0
353 -355 -354 0
356 -354 0
-356 354 0
-357 358 0
359 358 0
357 -359 -358 0
360 -358 0
-360 358 0
-361 362 0
363 362 0
361 -363 -362 0
364 -362 0
-364 362 0
-365 366 0
367 366 0
365 -367 -366 0
368 -366 0
-368 366 0
-369 370 0
371 370 0
369 -371 -370 0
372 -370 0
-372 370 0
-373 374 0
375 374 0
373 -375 -374 0
376 -374 0
-376 374 0
-377 378 0
379 378 0
377 -379 -378 0
380 -378 0
-380 378 0
-381 382 0
-5 -383 382 0
5 381 -382 0
381 383 -382 0
1 -382 0
-1 382 0
-384 385 0
-9 -386 385 0
9 384 -385 0
384 386 -385 0
5 -385 0
-5 385 0
-387 388 0
-13 -389 388 0
13 387 -388 0
387 389 -388 0
9 -388 0
-9 388 0
-390 391 0
-17 -392 391 0
17 390 -391 0
390 392 -391 0
13 -391 0
-13 391 0
-393 394 0
-384 -395 394 0
-387 -386 -395 394 0
-396 0
384 387 390 393 -394 0
387 390 395 393 -394 0
384 386 390 393 -394 0
386 390 395 393 -394 0
384 390 395 393 -394 0
390 395 393 -394 0
384 386 387 393 -394 0
386 387 395 393 -394 0
384 386 393 -394 0
386 395 393 -394 0
384 386 395 393 -394 0
384 387 389 393 -394 0
387 389 395 393 -394 0
384 386 389 393 -394 0
386 389 395 393 -394 0
384 389 395 393 -394 0
389 395 393 -394 0
384 387 395 393 -394 0
387 395 393 -394 0
384 395 393 -394 0
395 393 -394 0
17 -394 0
-17 394 0
-397 398 0
-25 -399 398 0
25 397 -398 0
397 399 -398 0
21 -398 0
-21 398 0
-400 401 0
-29 -402 401 0
29 400 -401 0
400 402 -401 0
25 -401 0
-25 401 0
-403 404 0
-33 -405 404 0
33 403 -404 0
403 405 -404 0
29 -404 0
-29 404 0
33 -406 0
406 -33 0
-407 408 0
-41 -409 408 0
41 407 -408 0
407 409 -408 0
37 -408 0
-37 408 0
41 -410 0
410 -41 0
-411 412 0
-49 -413 412 0
49 411 -412 0
411 413 -412 0
45 -412 0
-45 412 0
-414 415 0
-53 -416 415 0
53 414 -415 0
414 416 -415 0
49 -415 0
-49 415 0
-417 418 0
-57 -419 418 0
57 417 -418 0
417 419 -418 0
53 -418 0
-53 418 0
-420 421 0
-61 -422 421 0
61 420 -421 0
420 422 -421 0
57 -421 0
-57 421 0
-423 424 0
-65 -425 424 0
65 423 -424 0
423 425 -424 0
61 -424 0
-61 424 0
-426 427 0
-69 -428 427 0
69 426 -427 0
426 428 -427 0
65 -427 0
-65 427 0
-429 430 0
-423 -431 430 0
-426 -425 -431 430 0
423 426 429 -430 0
426 431 429 -430 0
423 425 429 -430 0
425 431 429 -430 0
423 431 429 -430 0
431 429 -430 0
69 -430 0
-69 430 0
-432 433 0
-77 -434 433 0
77 432 -433 0
432 434 -433 0
73 -433 0
-73 433 0
-435 436 0
-81 -437 436 0
81 435 -436 0
435 437 -436 0
77 -436 0
-77 436 0
-438 439 0
-85 -440 439 0
85 438 -439 0
438 440 -439 0
81 -439 0
-81 439 0
85 -441 0
441 -85 0
-442 443 0
-93 -444 443 0
93 442 -443 0
442 444 -443 0
89 -443 0
-89 443 0
-445 446 0
-97 -447 446 0
97 445 -446 0
445 447 -446 0
93 -446 0
-93 446 0
-448 449 0
-442 -450 449 0
-445 -444 -450 449 0
442 445 448 -449 0
445 450 448 -449 0
442 444 448 -449 0
444 450 448 -449 0
442 450 448 -449 0
450 448 -449 0
97 -449 0
-97 449 0
-451 452 0
-105 -453 452 0
105 451 -452 0
451 453 -452 0
101 -452 0
-101 452 0
-454 455 0
-109 -456 455 0
109 454 -455 0
454 456 -455 0
105 -455 0
-105 455 0
-457 458 0
-113 -459 458 0
113 457 -458 0
457 459 -458 0
109 -458 0
-109 458 0
-460 461 0
-117 -462 461 0
117 460 -461 0
460 462 -461 0
113 -461 0
-113 461 0
-463 464 0
-457 -465 464 0
-460 -459 -465 464 0
457 460 463 -464 0
460 465 463 -464 0
457 459 463 -464 0
459 465 463 -464 0
457 465 463 -464 0
465 463 -464 0
117 -464 0
-117 464 0
-466 467 0
-125 -468 467 0
125 466 -467 0
466 468 -467 0
121 -467 0
-121 467 0
-469 470 0
-129 -471 470 0
129 469 -470 0
469 471 -470 0
125 -470 0
-125 470 0
-472 473 0
-133 -474 473 0
133 472 -473 0
472 474 -473 0
129 -473 0
-129 473 0
-475 476 0
-137 -477 476 0
137 475 -476 0
475 477 -476 0
133 -476 0
-133 476 0
-478 479 0
-472 -480 479 0
-475 -474 -480 479 0
472 475 478 -479 0
475 480 478 -479 0
472 474 478 -479 0
474 480 478 -479 0
472 480 478 -479 0
480 478 -479 0
137 -479 0
-137 479 0
-481 482 0
-145 -483 482 0
145 481 -482 0
481 483 -482 0
141 -482 0
-141 482 0
-484 485 0
-149 -486 485 0
149 484 -485 0
484 486 -485 0
145 -485 0
-145 485 0
-487 488 0
-153 -489 488 0
153 487 -488 0
487 489 -488 0
149 -488 0
-149 488 0
153 -490 0
490 -153 0
-491 492 0
-161 -493 492 0
161 491 -492 0
491 493 -492 0
157 -492 0
-157 492 0
-494 495 0
-165 -496 495 0
165 494 -495 0
494 496 -495 0
161 -495 0
-161 495 0
-497 498 0
-169 -499 498 0
169 497 -498 0
497 499 -498 0
165 -498 0
-165 498 0
169 -500 0
500 -169 0
-501 502 0
-177 -503 502 0
177 501 -502 0
501 503 -502 0
173 -502 0
-173 502 0
504 -505 0
-181 -506 504 0
181 505 -504 0
505 506 -504 0
177 -504 0
-177 504 0
-507 508 0
-185 -509 508 0
185 507 -508 0
507 509 -508 0
181 -508 0
-181 508 0
-510 511 0
-189 -512 511 0
189 510 -511 0
510 512 -511 0
185 -511 0
-185 511 0
-513 514 0
-193 -515 514 0
193 513 -514 0
513 515 -514 0
189 -514 0
-189 514 0
516 -517 0
-510 -518 516 0
-513 -512 -518 516 0
510 513 517 -516 0
513 518 517 -516 0
510 512 517 -516 0
512 518 517 -516 0
510 518 517 -516 0
518 517 -516 0
193 -516 0
-193 516 0
-519 520 0
-201 -521 520 0
201 519 -520 0
519 521 -520 0
197 -520 0
-197 520 0
522 -523 0
-205 -524 522 0
205 523 -522 0
523 524 -522 0
201 -522 0
-201 522 0
205 -525 0
525 -205 0
-526 527 0
-213 -528 527 0
213 526 -527 0
526 528 -527 0
209 -527 0
-209 527 0
-529 530 0
-217 -531 530 0
217 529 -530 0
529 531 -530 0
213 -530 0
-213 530 0
532 -533 0
-221 -534 532 0
221 533 -532 0
533 534 -532 0
217 -532 0
-217 532 0
535 -536 0
-225 -537 535 0
225 536 -535 0
536 537 -535 0
221 -535 0
-221 535 0
-538 539 0
-229 -540 539 0
229 538 -539 0
538 540 -539 0
225 -539 0
-225 539 0
-541 542 0
-538 -543 542 0
538 541 -542 0
543 541 -542 0
229 -542 0
-229 542 0
-544 545 0
-237 -546 545 0
237 544 -545 0
544 546 -545 0
233 -545 0
-233 545 0
-547 548 0
-241 -549 548 0
241 547 -548 0
547 549 -548 0
237 -548 0
-237 548 0
550 -551 0
-245 -552 550 0
245 551 -550 0
551 552 -550 0
241 -550 0
-241 550 0
-553 554 0
-249 -555 554 0
249 553 -554 0
553 555 -554 0
245 -554 0
-245 554 0
-556 557 0
-553 -558 557 0
553 556 -557 0
558 556 -557 0
249 -557 0
-249 557 0
-559 560 0
-257 -561 560 0
257 559 -560 0
559 561 -560 0
253 -560 0
-253 560 0
-562 563 0
-261 -564 563 0
261 562 -563 0
562 564 -563 0
257 -563 0
-257 563 0
-565 566 0
-265 -567 566 0
265 565 -566 0
565 567 -566 0
261 -566 0
-261 566 0
568 -569 0
-269 -570 568 0
269 569 -568 0
569 570 -568 0
265 -568 0
-265 568 0
-571 572 0
-273 -573 572 0
273 571 -572 0
571 573 -572 0
269 -572 0
-269 572 0
-574 575 0
-277 -576 575 0
277 574 -575 0
574 576 -575 0
273 -575 0
-273 575 0
-577 578 0
-571 -579 578 0
-573 -579 -574 578 0
571 573 577 -578 0
573 579 577 -578 0
571 579 577 -578 0
579 577 -578 0
571 574 577 -578 0
574 579 577 -578 0
277 -578 0
-277 578 0
-580 581 0
-285 -582 581 0
285 580 -581 0
580 582 -581 0
281 -581 0
-281 581 0
-583 584 0
-289 -585 584 0
289 583 -584 0
583 585 -584 0
285 -584 0
-285 584 0
586 -587 0
-293 -588 586 0
293 587 -586 0
587 588 -586 0
289 -586 0
-289 586 0
-589 590 0
-297 -591 590 0
297 589 -590 0
589 591 -590 0
293 -590 0
-293 590 0
-592 593 0
-301 -594 593 0
301 592 -593 0
592 594 -593 0
297 -593 0
-297 593 0
-595 596 0
-305 -597 596 0
305 595 -596 0
595 597 -596 0
301 -596 0
-301 596 0
-598 599 0
-589 -600 599 0
-592 -591 -600 599 0
-601 0
589 591 592 598 -599 0
591 592 600 598 -599 0
589 591 598 -599 0
591 600 598 -599 0
589 591 600 598 -599 0
589 592 594 598 -599 0
592 594 600 598 -599 0
589 591 594 598 -599 0
591 594 600 598 -599 0
589 594 600 598 -599 0
594 600 598 -599 0
589 592 600 598 -599 0
592 600 598 -599 0
589 600 598 -599 0
600 598 -599 0
589 592 595 598 -599 0
592 595 600 598 -599 0
589 591 595 598 -599 0
591 595 600 598 -599 0
589 595 600 598 -599 0
595 600 598 -599 0
305 -599 0
-305 599 0
-602 603 0
-313 -604 603 0
313 602 -603 0
602 604 -603 0
309 -603 0
-309 603 0
605 -606 0
-317 -607 605 0
317 606 -605 0
606 607 -605 0
313 -605 0
-313 605 0
-608 609 0
-321 -610 609 0
321 608 -609 0
608 610 -609 0
317 -609 0
-317 609 0
-611 612 0
-325 -613 612 0
325 611 -612 0
611 613 -612 0
321 -612 0
-321 612 0
-614 615 0
-608 -616 615 0
-611 -610 -616 615 0
608 611 614 -615 0
611 616 614 -615 0
608 610 614 -615 0
610 616 614 -615 0
608 616 614 -615 0
616 614 -615 0
325 -615 0
-325 615 0
-617 618 0
-333 -619 618 0
333 617 -618 0
617 619 -618 0
329 -618 0
-329 618 0
620 -621 0
-337 -622 620 0
337 621 -620 0
621 622 -620 0
333 -620 0
-333 620 0
-623 624 0
-341 -625 624 0
341 623 -624 0
623 625 -624 0
337 -624 0
-337 624 0
-626 627 0
-345 -628 627 0
345 626 -627 0
626 628 -627 0
341 -627 0
-341 627 0
-629 630 0
-623 -631 630 0
-625 -631 -626 630 0
623 625 629 -630 0
625 631 629 -630 0
623 631 629 -630 0
631 629 -630 0
623 626 629 -630 0
626 631 629 -630 0
345 -630 0
-345 630 0
-632 633 0
-353 -634 633 0
353 632 -633 0
632 634 -633 0
349 -633 0
-349 633 0
635 -636 0
-357 -637 635 0
357 636 -635 0
636 637 -635 0
353 -635 0
-353 635 0
357 -638 0
638 -357 0
-639 640 0
-365 -641 640 0
365 639 -640 0
639 641 -640 0
361 -640 0
-361 640 0
642 -643 0
-369 -644 642 0
369 643 -642 0
643 644 -642 0
365 -642 0
-365 642 0
-645 646 0
-373 -647 646 0
373 645 -646 0
645 647 -646 0
369 -646 0
-369 646 0
-648 649 0
-377 -650 649 0
377 648 -649 0
648 650 -649 0
373 -649 0
-373 649 0
-651 652 0
-645 -653 652 0
-647 -653 -648 652 0
645 647 651 -652 0
647 653 651 -652 0
645 653 651 -652 0
653 651 -652 0
645 648 651 -652 0
648 653 651 -652 0
377 -652 0
-377 652 0
654 -383 -655 0
383 -654 -655 0
-654 -383 655 0
383 654 655 0
-655 0
656 -386 -657 0
386 -656 -657 0
-656 -386 657 0
386 656 657 0
-657 0
658 -389 -659 0
389 -658 -659 0
-658 -389 659 0
389 658 659 0
-659 0
660 -392 -661 0
392 -660 -661 0
-660 -392 661 0
392 660 661 0
-661 0
662 -395 -663 0
395 -662 -663 0
-662 -395 663 0
395 662 663 0
-663 0
664 -399 -665 0
399 -664 -665 0
-664 -399 665 0
399 664 665 0
-665 0
666 -402 -667 0
402 -666 -667 0
-666 -402 667 0
402 666 667 0
-667 0
668 -405 -669 0
405 -668 -669 0
-668 -405 669 0
405 668 669 0
-669 0
670 -671 -672 0
671 -670 -672 0
-670 -671 672 0
671 670 672 0
-672 0
673 -409 -674 0
409 -673 -674 0
-673 -409 674 0
409 673 674 0
-674 0
675 -676 -677 0
676 -675 -677 0
-675 -676 677 0
676 675 677 0
-677 0
678 -413 -679 0
413 -678 -679 0
-678 -413 679 0
413 678 679 0
-679 0
680 -416 -681 0
416 -680 -681 0
-680 -416 681 0
416 680 681 0
-681 0
682 -419 -683 0
419 -682 -683 0
-682 -419 683 0
419 682 683 0
-683 0
684 -422 -685 0
422 -684 -685 0
-684 -422 685 0
422 684 685 0
-685 0
686 -425 -687 0
425 -686 -687 0
-686 -425 687 0
425 686 687 0
-687 0
688 -428 -689 0
428 -688 -689 0
-688 -428 689 0
428 688 689 0
-689 0
690 -431 -691 0
431 -690 -691 0
-690 -431 691 0
431 690 691 0
-691 0
692 -434 -693 0
434 -692 -693 0
-692 -434 693 0
434 692 693 0
-693 0
694 -437 -695 0
437 -694 -695 0
-694 -437 695 0
437 694 695 0
-695 0
696 -440 -697 0
440 -696 -697 0
-696 -440 697 0
440 696 697 0
-697 0
698 -699 -700 0
699 -698 -700 0
-698 -699 700 0
699 698 700 0
-700 0
701 -444 -702 0
444 -701 -702 0
-701 -444 702 0
444 701 702 0
-702 0
703 -447 -704 0
447 -703 -704 0
-703 -447 704 0
447 703 704 0
-704 0
705 -450 -706 0
450 -705 -706 0
-705 -450 706 0
450 705 706 0
-706 0
707 -453 -708 0
453 -707 -708 0
-707 -453 708 0
453 707 708 0
-708 0
709 -456 -710 0
456 -709 -710 0
-709 -456 710 0
456 709 710 0
-710 0
711 -459 -712 0
459 -711 -712 0
-711 -459 712 0
459 711 712 0
-712 0
713 -462 -714 0
462 -713 -714 0
-713 -462 714 0
462 713 714 0
-714 0
715 -465 -716 0
465 -715 -716 0
-715 -465 716 0
465 715 716 0
-716 0
717 -468 -718 0
468 -717 -718 0
-717 -468 718 0
468 717 718 0
-718 0
719 -471 -720 0
471 -719 -720 0
-719 -471 720 0
471 719 720 0
-720 0
721 -474 -722 0
474 -721 -722 0
-721 -474 722 0
474 721 722 0
-722 0
723 -477 -724 0
477 -723 -724 0
-723 -477 724 0
477 723 724 0
-724 0
725 -480 -726 0
480 -725 -726 0
-725 -480 726 0
480 725 726 0
-726 0
727 -483 -728 0
483 -727 -728 0
-727 -483 728 0
483 727 728 0
-728 0
729 -486 -730 0
486 -729 -730 0
-729 -486 730 0
486 729 730 0
-730 0
731 -489 -732 0
489 -731 -732 0
-731 -489 732 0
489 731 732 0
-732 0
733 -734 -735 0
734 -733 -735 0
-733 -734 735 0
734 733 735 0
-735 0
736 -493 -737 0
493 -736 -737 0
-736 -493 737 0
493 736 737 0
-737 0
738 -496 -739 0
496 -738 -739 0
-738 -496 739 0
496 738 739 0
-739 0
740 -499 -741 0
499 -740 -741 0
-740 -499 741 0
499 740 741 0
-741 0
742 -743 -744 0
743 -742 -744 0
-742 -743 744 0
743 742 744 0
-744 0
745 -503 -746 0
503 -745 -746 0
-745 -503 746 0
503 745 746 0
-746 0
747 -506 -748 0
506 -747 -748 0
-747 -506 748 0
506 747 748 0
-748 0
749 -509 -750 0
509 -749 -750 0
-749 -509 750 0
509 749 750 0
-750 0
751 -512 -752 0
512 -751 -752 0
-751 -512 752 0
512 751 752 0
-752 0
753 -515 -754 0
515 -753 -754 0
-753 -515 754 0
515 753 754 0
-754 0
755 -518 -756 0
518 -755 -756 0
-755 -518 756 0
518 755 756 0
-756 0
757 -521 -758 0
521 -757 -758 0
-757 -521 758 0
521 757 758 0
-758 0
759 -524 -760 0
524 -759 -760 0
-759 -524 760 0
524 759 760 0
-760 0
761 -762 -763 0
762 -761 -763 0
-761 -762 763 0
762 761 763 0
-763 0
764 -528 -765 0
528 -764 -765 0
-764 -528 765 0
528 764 765 0
-765 0
766 -531 -767 0
531 -766 -767 0
-766 -531 767 0
531 766 767 0
-767 0
768 -534 -769 0
534 -768 -769 0
-768 -534 769 0
534 768 769 0
-769 0
770 -537 -771 0
537 -770 -771 0
-770 -537 771 0
537 770 771 0
-771 0
772 -540 -773 0
540 -772 -773 0
-772 -540 773 0
540 772 773 0
-773 0
774 -543 -775 0
543 -774 -775 0
-774 -543 775 0
543 774 775 0
-775 0
776 -546 -777 0
546 -776 -777 0
-776 -546 777 0
546 776 777 0
-777 0
778 -549 -779 0
549 -778 -779 0
-778 -549 779 0
549 778 779 0
-779 0
780 -552 -781 0
552 -780 -781 0
-780 -552 781 0
552 780 781 0
-781 0
782 -555 -783 0
555 -782 -783 0
-782 -555 783 0
555 782 783 0
-783 0
784 -558 -785 0
558 -784 -785 0
-784 -558 785 0
558 784 785 0
-785 0
786 -561 -787 0
561 -786 -787 0
-786 -561 787 0
561 786 787 0
-787 0
788 -564 -789 0
564 -788 -789 0
-788 -564 789 0
564 788 789 0
-789 0
790 -567 -791 0
567 -790 -791 0
-790 -567 791 0
567 790 791 0
-791 0
792 -570 -793 0
570 -792 -793 0
-792 -570 793 0
570 792 793 0
-793 0
794 -573 -795 0
573 -794 -795 0
-794 -573 795 0
573 794 795 0
-795 0
796 -576 -797 0
576 -796 -797 0
-796 -576 797 0
576 796 797 0
-797 0
798 -579 -799 0
579 -798 -799 0
-798 -579 799 0
579 798 799 0
-799 0
800 -582 -801 0
582 -800 -801 0
-800 -582 801 0
582 800 801 0
-801 0
802 -585 -803 0
585 -802 -803 0
-802 -585 803 0
585 802 803 0
-803 0
804 -588 -805 0
588 -804 -805 0
-804 -588 805 0
588 804 805 0
-805 0
806 -591 -807 0
591 -806 -807 0
-806 -591 807 0
591 806 807 0
-807 0
808 -594 -809 0
594 -808 -809 0
-808 -594 809 0
594 808 809 0
-809 0
810 -597 -811 0
597 -810 -811 0
-810 -597 811 0
597 810 811 0
-811 0
812 -600 -813 0
600 -812 -813 0
-812 -600 813 0
600 812 813 0
-813 0
814 -604 -815 0
604 -814 -815 0
-814 -604 815 0
604 814 815 0
-815 0
816 -607 -817 0
607 -816 -817 0
-816 -607 817 0
607 816 817 0
-817 0
818 -610 -819 0
610 -818 -819 0
-818 -610 819 0
610 818 819 0
-819 0
820 -613 -821 0
613 -820 -821 0
-820 -613 821 0
613 820 821 0
-821 0
822 -616 -823 0
616 -822 -823 0
-822 -616 823 0
616 822 823 0
-823 0
824 -619 -825 0
619 -824 -825 0
-824 -619 825 0
619 824 825 0
-825 0
826 -622 -827 0
622 -826 -827 0
-826 -622 827 0
622 826 827 0
-827 0
828 -625 -829 0
625 -828 -829 0
-828 -625 829 0
625 828 829 0
-829 0
830 -628 -831 0
628 -830 -831 0
-830 -628 831 0
628 830 831 0
-831 0
832 -631 -833 0
631 -832 -833 0
-832 -631 833 0
631 832 833 0
-833 0
834 -634 -835 0
634 -834 -835 0
-834 -634 835 0
634 834 835 0
-835 0
836 -637 -837 0
637 -836 -837 0
-836 -637 837 0
637 836 837 0
-837 0
838 -839 -840 0
839 -838 -840 0
-838 -839 840 0
839 838 840 0
-840 0
841 -641 -842 0
641 -841 -842 0
-841 -641 842 0
641 841 842 0
-842 0
843 -644 -844 0
644 -843 -844 0
-843 -644 844 0
644 843 844 0
-844 0
845 -647 -846 0
647 -845 -846 0
-845 -647 846 0
647 845 846 0
-846 0
847 -650 -848 0
650 -847 -848 0
-847 -650 848 0
650 847 848 0
-848 0
849 -653 -850 0
653 -849 -850 0
-849 -653 850 0
653 849 850 0
-850 0
654 0
-656 0
658 0
-660 0
-662 0
664 0
666 0
668 0
-670 0
-673 0
675 0
678 0
680 0
-682 0
-684 0
686 0
-688 0
690 0
692 0
694 0
696 0
-698 0
701 0
-703 0
705 0
707 0
-709 0
-711 0
713 0
715 0
717 0
-719 0
-721 0
723 0
725 0
727 0
729 0
731 0
-733 0
-736 0
738 0
740 0
-742 0
745 0
-747 0
-749 0
-751 0
753 0
-755 0
757 0
759 0
761 0
-764 0
766 0
768 0
-770 0
772 0
-774 0
-776 0
778 0
780 0
-782 0
784 0
-786 0
788 0
790 0
-792 0
-794 0
-796 0
-798 0
-800 0
802 0
-804 0
-806 0
-808 0
-810 0
-812 0
814 0
816 0
818 0
820 0
-822 0
824 0
826 0
-828 0
-830 0
-832 0
834 0
-836 0
838 0
841 0
-843 0
845 0
-847 0
-849 0
-381 0
-384 0
-387 0
-390 0
-393 0
-397 0
-400 0
-403 0
-406 0
-407 0
-410 0
-411 0
-414 0
-417 0
-420 0
-423 0
-426 0
-429 0
-432 0
-435 0
-438 0
-441 0
-442 0
-445 0
-448 0
-451 0
-454 0
-457 0
-460 0
-463 0
-466 0
-469 0
-472 0
-475 0
-478 0
-481 0
-484 0
-487 0
-490 0
-491 0
-494 0
-497 0
-500 0
-501 0
505 0
-507 0
-510 0
-513 0
517 0
-519 0
523 0
-525 0
-526 0
-529 0
533 0
536 0
-538 0
-541 0
-544 0
-547 0
551 0
553 0
-556 0
-559 0
-562 0
-565 0
569 0
571 0
574 0
-577 0
-580 0
-583 0
587 0
-589 0
-592 0
595 0
-598 0
-602 0
606 0
608 0
-611 0
-614 0
-617 0
621 0
623 0
626 0
-629 0
-632 0
636 0
638 0
-639 0
643 0
645 0
648 0
-651 0
4 0
24 0
40 0
48 0
76 0
92 0
104 0
124 0
144 0
160 0
-176 0
-200 0
-212 0
-236 0
-256 0
-284 0
-312 0
-332 0
-352 0
-364 0
23 -75 0
-23 75 0
27 -79 0
-27 79 0
31 -83 0
-31 83 0
35 -87 0
-35 87 0
23 -143 0
-23 143 0
27 -147 0
-27 147 0
31 -151 0
-31 151 0
35 -155 0
-35 155 0
27 -163 0
-27 163 0
31 -167 0
-31 167 0
35 -171 0
-35 171 0
43 -207 0
-43 207 0
63 -91 0
-63 91 0
67 -95 0
-67 95 0
71 -99 0
-71 99 0
63 -119 0
-63 119 0
67 -111 0
-67 111 0
71 -115 0
-71 115 0
63 -139 0
-63 139 0
67 -131 0
-67 131 0
71 -135 0
-71 135 0
75 -143 0
-75 143 0
79 -147 0
-79 147 0
83 -151 0
-83 151 0
87 -155 0
-87 155 0
79 -163 0
-79 163 0
83 -167 0
-83 167 0
87 -171 0
-87 171 0
91 -119 0
-91 119 0
95 -111 0
-95 111 0
99 -115 0
-99 115 0
91 -139 0
-91 139 0
95 -131 0
-95 131 0
99 -135 0
-99 135 0
103 -123 0
-103 123 0
107 -127 0
-107 127 0
111 -131 0
-111 131 0
115 -135 0
-115 135 0
119 -139 0
-119 139 0
147 -163 0
-147 163 0
151 -167 0
-151 167 0
155 -171 0
-155 171 0
271 -339 0
-271 339 0
275 -343 0
-275 343 0
279 -347 0
-279 347 0
